\Problem name: ilog.cplex

Minimize
 obj: 445.57 Route_1_(4_9_10_12_11_2) + 44.557 Route_2_(4_9_11_2)
      + 53.468 Route_3_(4_9_10_12_3) + 534.68 Route_4_(4_9_11_12_3)
      + 26.733 Route_5_(4_9_10_5) + 534.68 Route_6_(5_10_12_11_2)
      + 53.468 Route_7_(5_10_9_11_2) + 44.557 Route_8_(5_10_12_3)
      + 445.57 Route_9_(5_10_9_11_12_3) + 26.733 Route_10_(5_10_9_4)
      + 17.822 Route_11_(6_7_1) + 623.8 Route_12_(6_5_10_9_11_2)
      + 623.8 Route_13_(6_7_9_10_12_11_2) + 62.38 Route_14_(6_7_9_11_2)
      + 623.8 Route_15_(6_8_10_12_11_2) + 623.8 Route_16_(6_8_10_9_11_2)
      + 623.8 Route_17_(6_5_10_12_3) + 623.8 Route_18_(6_7_9_10_12_3)
      + 623.8 Route_19_(6_7_9_11_12_3) + 62.38 Route_20_(6_8_10_12_3)
      + 623.8 Route_21_(6_8_10_9_10_12_3) + 356.45 Route_22_(6_5_10_9_4)
      + 35.645 Route_23_(6_7_9_4) + 356.45 Route_24_(6_8_10_5_10_9_4)
      + 356.45 Route_25_(6_8_10_9_4) + 35.645 Route_26_(6_5)
      + 356.45 Route_27_(6_7_9_10_5) + 356.45 Route_28_(6_8_10_5)
Subject To
 Positiveness_Route_22_(6_5_10_9_4): Route_22_(6_5_10_9_4) >= 0
 Positiveness_Route_23_(6_7_9_4): Route_23_(6_7_9_4) >= 0
 Positiveness_Route_24_(6_8_10_5_10_9_4): Route_24_(6_8_10_5_10_9_4) >= 0
 Positiveness_Route_25_(6_8_10_9_4): Route_25_(6_8_10_9_4) >= 0
 Positiveness_Route_8_(5_10_12_3): Route_8_(5_10_12_3) >= 0
 Positiveness_Route_9_(5_10_9_11_12_3): Route_9_(5_10_9_11_12_3) >= 0
 Positiveness_Route_17_(6_5_10_12_3): Route_17_(6_5_10_12_3) >= 0
 Positiveness_Route_18_(6_7_9_10_12_3): Route_18_(6_7_9_10_12_3) >= 0
 Positiveness_Route_19_(6_7_9_11_12_3): Route_19_(6_7_9_11_12_3) >= 0
 Positiveness_Route_20_(6_8_10_12_3): Route_20_(6_8_10_12_3) >= 0
 Positiveness_Route_21_(6_8_10_9_10_12_3): Route_21_(6_8_10_9_10_12_3) >= 0
 Positiveness_Route_12_(6_5_10_9_11_2): Route_12_(6_5_10_9_11_2) >= 0
 Positiveness_Route_13_(6_7_9_10_12_11_2): Route_13_(6_7_9_10_12_11_2) >= 0
 Positiveness_Route_14_(6_7_9_11_2): Route_14_(6_7_9_11_2) >= 0
 Positiveness_Route_15_(6_8_10_12_11_2): Route_15_(6_8_10_12_11_2) >= 0
 Positiveness_Route_16_(6_8_10_9_11_2): Route_16_(6_8_10_9_11_2) >= 0
 Positiveness_Route_6_(5_10_12_11_2): Route_6_(5_10_12_11_2) >= 0
 Positiveness_Route_7_(5_10_9_11_2): Route_7_(5_10_9_11_2) >= 0
 Positiveness_Route_26_(6_5):    Route_26_(6_5) >= 0
 Positiveness_Route_27_(6_7_9_10_5): Route_27_(6_7_9_10_5) >= 0
 Positiveness_Route_28_(6_8_10_5): Route_28_(6_8_10_5) >= 0
 Positiveness_Route_1_(4_9_10_12_11_2): Route_1_(4_9_10_12_11_2) >= 0
 Positiveness_Route_2_(4_9_11_2): Route_2_(4_9_11_2) >= 0
 Positiveness_Route_10_(5_10_9_4): Route_10_(5_10_9_4) >= 0
 Positiveness_Route_5_(4_9_10_5): Route_5_(4_9_10_5) >= 0
 Positiveness_Route_11_(6_7_1):  Route_11_(6_7_1) >= 0
 Positiveness_Route_3_(4_9_10_12_3): Route_3_(4_9_10_12_3) >= 0
 Positiveness_Route_4_(4_9_11_12_3): Route_4_(4_9_11_12_3) >= 0
 OD_6_4:                         Route_22_(6_5_10_9_4) >= 2400
 OD_6_3:                         Route_17_(6_5_10_12_3) >= 0
 OD_6_2:                         Route_12_(6_5_10_9_11_2) >= 3000
 OD_6_5:                         Route_27_(6_7_9_10_5) >= 720
 OD_4_5:                         Route_5_(4_9_10_5) >= 1320
 OD_6_1:                         Route_11_(6_7_1) >= 600
 OD_4_2:                         Route_1_(4_9_10_12_11_2) >= 720
 OD_4_3:                         Route_4_(4_9_11_12_3) >= 840
 OD_5_4:                         Route_10_(5_10_9_4) >= 0
 OD_5_3:                         Route_9_(5_10_9_11_12_3) >= 360
 OD_5_2:                         Route_6_(5_10_12_11_2) >= 2040
 Arc_11_12:                      Route_19_(6_7_9_11_12_3) >= 330
 Arc_12_3:                       Route_17_(6_5_10_12_3) >= 100
 Arc_4_9:                        Route_4_(4_9_11_12_3) >= 840
 Arc_6_5:                        Route_17_(6_5_10_12_3) >= 100
 Arc_7_9:                        Route_18_(6_7_9_10_12_3) >= 4950
 Arc_8_10:                       Route_21_(6_8_10_9_10_12_3) >= 550
 Arc_10_9:                       Route_21_(6_8_10_9_10_12_3) >= 550
 Arc_5_10:                       Route_17_(6_5_10_12_3) >= 200
 Arc_10_5:                       Route_24_(6_8_10_5_10_9_4) >= 1760
 Arc_6_8:                        Route_21_(6_8_10_9_10_12_3) >= 550
 Arc_11_2:                       Route_12_(6_5_10_9_11_2) >= 3000
 Arc_7_1:                        Route_11_(6_7_1) >= 600
 Arc_9_10:                       Route_18_(6_7_9_10_12_3) >= 4950
 Arc_12_11:                      Route_13_(6_7_9_10_12_11_2) >= 220
 Arc_6_7:                        Route_18_(6_7_9_10_12_3) >= 4950
 Arc_9_11:                       Route_19_(6_7_9_11_12_3) >= 490
 Arc_9_4:                        Route_22_(6_5_10_9_4) >= 2400
 Arc_10_12:                      Route_17_(6_5_10_12_3) >= 200
Bounds
 0 <= Route_1_(4_9_10_12_11_2) <= 2147483647
 0 <= Route_2_(4_9_11_2) <= 2147483647
 0 <= Route_3_(4_9_10_12_3) <= 2147483647
 0 <= Route_4_(4_9_11_12_3) <= 2147483647
 0 <= Route_5_(4_9_10_5) <= 2147483647
 0 <= Route_6_(5_10_12_11_2) <= 2147483647
 0 <= Route_7_(5_10_9_11_2) <= 2147483647
 0 <= Route_8_(5_10_12_3) <= 2147483647
 0 <= Route_9_(5_10_9_11_12_3) <= 2147483647
 0 <= Route_10_(5_10_9_4) <= 2147483647
 0 <= Route_11_(6_7_1) <= 2147483647
 0 <= Route_12_(6_5_10_9_11_2) <= 2147483647
 0 <= Route_13_(6_7_9_10_12_11_2) <= 2147483647
 0 <= Route_14_(6_7_9_11_2) <= 2147483647
 0 <= Route_15_(6_8_10_12_11_2) <= 2147483647
 0 <= Route_16_(6_8_10_9_11_2) <= 2147483647
 0 <= Route_17_(6_5_10_12_3) <= 2147483647
 0 <= Route_18_(6_7_9_10_12_3) <= 2147483647
 0 <= Route_19_(6_7_9_11_12_3) <= 2147483647
 0 <= Route_20_(6_8_10_12_3) <= 2147483647
 0 <= Route_21_(6_8_10_9_10_12_3) <= 2147483647
 0 <= Route_22_(6_5_10_9_4) <= 2147483647
 0 <= Route_23_(6_7_9_4) <= 2147483647
 0 <= Route_24_(6_8_10_5_10_9_4) <= 2147483647
 0 <= Route_25_(6_8_10_9_4) <= 2147483647
 0 <= Route_26_(6_5) <= 2147483647
 0 <= Route_27_(6_7_9_10_5) <= 2147483647
 0 <= Route_28_(6_8_10_5) <= 2147483647
End
